60

 0   0   1   1   2   4   6   4   6   7   5   5   5   7   7   8   8   8   3   3   7   7   7   9   4   4   5   5   5   5   6   8  10  10  10  10   5   5   5   6   6   6   6   7   7   8   8   9  10  11   6   6   6  10  11  11  12  12  12  12  
 0   0   1   1   2   4   6   4   6   7   5   5   5   7   7   8   8   8   3   3   7   7   7   9   4   4   5   5   5   5   6   8  10  10  10  10   5   5   5   6   6   6   6   7   7   8   8   9  10  11   6   6   6  10  11  11  12  12  12  12  
 1   1   0   0   1   3   5   3   5   6   4   4   4   6   6   7   7   7   4   4   6   6   6   8   5   5   4   4   4   4   5   7   9   9   9   9   6   6   6   5   5   5   5   6   6   7   7   8   9  10   7   7   7   9  10  10  11  11  11  11  
 1   1   0   0   1   3   5   3   5   6   4   4   4   6   6   7   7   7   4   4   6   6   6   8   5   5   4   4   4   4   5   7   9   9   9   9   6   6   6   5   5   5   5   6   6   7   7   8   9  10   7   7   7   9  10  10  11  11  11  11  
 2   2   1   1   0   2   4   2   4   5   3   3   3   5   5   6   6   6   5   5   5   5   5   7   6   6   5   5   5   5   4   6   8   8   8   8   7   7   7   6   6   6   6   5   5   6   6   7   8   9   8   8   8   8   9   9  10  10  10  10  
 4   4   3   3   2   0   2   2   2   3   3   3   3   3   3   4   4   4   7   7   3   3   3   5   8   8   7   7   7   7   6   4   6   6   6   6   9   9   9   8   8   8   8   7   7   6   6   5   6   7  10  10  10   6   7   7   8   8   8   8  
 6   6   5   5   4   2   0   4   2   1   5   5   5   3   3   2   2   2   9   9   5   5   5   3  10  10   9   9   9   9   8   6   4   4   4   4  11  11  11  10  10  10  10   9   9   8   8   7   6   5  12  12  12   8   7   7   6   6   6   6  
 4   4   3   3   2   2   4   0   2   3   1   1   1   3   3   4   4   4   5   5   3   3   3   5   6   6   5   5   5   5   4   4   6   6   6   6   7   7   7   6   6   6   6   5   5   4   4   5   6   7   8   8   8   6   7   7   8   8   8   8  
 6   6   5   5   4   2   2   2   0   1   3   3   3   1   1   2   2   2   7   7   3   3   3   3   8   8   7   7   7   7   6   4   4   4   4   4   9   9   9   8   8   8   8   7   7   6   6   5   4   5  10  10  10   6   5   5   6   6   6   6  
 7   7   6   6   5   3   1   3   1   0   4   4   4   2   2   1   1   1   8   8   4   4   4   2   9   9   8   8   8   8   7   5   3   3   3   3  10  10  10   9   9   9   9   8   8   7   7   6   5   4  11  11  11   7   6   6   5   5   5   5  
 5   5   4   4   3   3   5   1   3   4   0   0   0   2   2   3   3   3   4   4   2   2   2   4   5   5   4   4   4   4   3   3   5   5   5   5   6   6   6   5   5   5   5   4   4   3   3   4   5   6   7   7   7   5   6   6   7   7   7   7  
 5   5   4   4   3   3   5   1   3   4   0   0   0   2   2   3   3   3   4   4   2   2   2   4   5   5   4   4   4   4   3   3   5   5   5   5   6   6   6   5   5   5   5   4   4   3   3   4   5   6   7   7   7   5   6   6   7   7   7   7  
 5   5   4   4   3   3   5   1   3   4   0   0   0   2   2   3   3   3   4   4   2   2   2   4   5   5   4   4   4   4   3   3   5   5   5   5   6   6   6   5   5   5   5   4   4   3   3   4   5   6   7   7   7   5   6   6   7   7   7   7  
 7   7   6   6   5   3   3   3   1   2   2   2   2   0   0   1   1   1   6   6   2   2   2   2   7   7   6   6   6   6   5   3   3   3   3   3   8   8   8   7   7   7   7   6   6   5   5   4   3   4   9   9   9   5   4   4   5   5   5   5  
 7   7   6   6   5   3   3   3   1   2   2   2   2   0   0   1   1   1   6   6   2   2   2   2   7   7   6   6   6   6   5   3   3   3   3   3   8   8   8   7   7   7   7   6   6   5   5   4   3   4   9   9   9   5   4   4   5   5   5   5  
 8   8   7   7   6   4   2   4   2   1   3   3   3   1   1   0   0   0   7   7   3   3   3   1   8   8   7   7   7   7   6   4   2   2   2   2   9   9   9   8   8   8   8   7   7   6   6   5   4   3  10  10  10   6   5   5   4   4   4   4  
 8   8   7   7   6   4   2   4   2   1   3   3   3   1   1   0   0   0   7   7   3   3   3   1   8   8   7   7   7   7   6   4   2   2   2   2   9   9   9   8   8   8   8   7   7   6   6   5   4   3  10  10  10   6   5   5   4   4   4   4  
 8   8   7   7   6   4   2   4   2   1   3   3   3   1   1   0   0   0   7   7   3   3   3   1   8   8   7   7   7   7   6   4   2   2   2   2   9   9   9   8   8   8   8   7   7   6   6   5   4   3  10  10  10   6   5   5   4   4   4   4  
 3   3   4   4   5   7   9   5   7   8   4   4   4   6   6   7   7   7   0   0   4   4   4   6   1   1   2   2   2   2   3   5   7   7   7   7   2   2   2   3   3   3   3   4   4   5   5   6   7   8   3   3   3   7   8   8   9   9   9   9  
 3   3   4   4   5   7   9   5   7   8   4   4   4   6   6   7   7   7   0   0   4   4   4   6   1   1   2   2   2   2   3   5   7   7   7   7   2   2   2   3   3   3   3   4   4   5   5   6   7   8   3   3   3   7   8   8   9   9   9   9  
 7   7   6   6   5   3   5   3   3   4   2   2   2   2   2   3   3   3   4   4   0   0   0   2   5   5   4   4   4   4   3   1   3   3   3   3   6   6   6   5   5   5   5   4   4   3   3   2   3   4   7   7   7   3   4   4   5   5   5   5  
 7   7   6   6   5   3   5   3   3   4   2   2   2   2   2   3   3   3   4   4   0   0   0   2   5   5   4   4   4   4   3   1   3   3   3   3   6   6   6   5   5   5   5   4   4   3   3   2   3   4   7   7   7   3   4   4   5   5   5   5  
 7   7   6   6   5   3   5   3   3   4   2   2   2   2   2   3   3   3   4   4   0   0   0   2   5   5   4   4   4   4   3   1   3   3   3   3   6   6   6   5   5   5   5   4   4   3   3   2   3   4   7   7   7   3   4   4   5   5   5   5  
 9   9   8   8   7   5   3   5   3   2   4   4   4   2   2   1   1   1   6   6   2   2   2   0   7   7   6   6   6   6   5   3   1   1   1   1   8   8   8   7   7   7   7   6   6   5   5   4   3   2   9   9   9   5   4   4   3   3   3   3  
 4   4   5   5   6   8  10   6   8   9   5   5   5   7   7   8   8   8   1   1   5   5   5   7   0   0   1   1   1   1   2   4   6   6   6   6   1   1   1   2   2   2   2   3   3   4   4   5   6   7   2   2   2   6   7   7   8   8   8   8  
 4   4   5   5   6   8  10   6   8   9   5   5   5   7   7   8   8   8   1   1   5   5   5   7   0   0   1   1   1   1   2   4   6   6   6   6   1   1   1   2   2   2   2   3   3   4   4   5   6   7   2   2   2   6   7   7   8   8   8   8  
 5   5   4   4   5   7   9   5   7   8   4   4   4   6   6   7   7   7   2   2   4   4   4   6   1   1   0   0   0   0   1   3   5   5   5   5   2   2   2   1   1   1   1   2   2   3   3   4   5   6   3   3   3   5   6   6   7   7   7   7  
 5   5   4   4   5   7   9   5   7   8   4   4   4   6   6   7   7   7   2   2   4   4   4   6   1   1   0   0   0   0   1   3   5   5   5   5   2   2   2   1   1   1   1   2   2   3   3   4   5   6   3   3   3   5   6   6   7   7   7   7  
 5   5   4   4   5   7   9   5   7   8   4   4   4   6   6   7   7   7   2   2   4   4   4   6   1   1   0   0   0   0   1   3   5   5   5   5   2   2   2   1   1   1   1   2   2   3   3   4   5   6   3   3   3   5   6   6   7   7   7   7  
 5   5   4   4   5   7   9   5   7   8   4   4   4   6   6   7   7   7   2   2   4   4   4   6   1   1   0   0   0   0   1   3   5   5   5   5   2   2   2   1   1   1   1   2   2   3   3   4   5   6   3   3   3   5   6   6   7   7   7   7  
 6   6   5   5   4   6   8   4   6   7   3   3   3   5   5   6   6   6   3   3   3   3   3   5   2   2   1   1   1   1   0   2   4   4   4   4   3   3   3   2   2   2   2   1   1   2   2   3   4   5   4   4   4   4   5   5   6   6   6   6  
 8   8   7   7   6   4   6   4   4   5   3   3   3   3   3   4   4   4   5   5   1   1   1   3   4   4   3   3   3   3   2   0   2   2   2   2   5   5   5   4   4   4   4   3   3   2   2   1   2   3   6   6   6   2   3   3   4   4   4   4  
10  10   9   9   8   6   4   6   4   3   5   5   5   3   3   2   2   2   7   7   3   3   3   1   6   6   5   5   5   5   4   2   0   0   0   0   7   7   7   6   6   6   6   5   5   4   4   3   2   1   8   8   8   4   3   3   2   2   2   2  
10  10   9   9   8   6   4   6   4   3   5   5   5   3   3   2   2   2   7   7   3   3   3   1   6   6   5   5   5   5   4   2   0   0   0   0   7   7   7   6   6   6   6   5   5   4   4   3   2   1   8   8   8   4   3   3   2   2   2   2  
10  10   9   9   8   6   4   6   4   3   5   5   5   3   3   2   2   2   7   7   3   3   3   1   6   6   5   5   5   5   4   2   0   0   0   0   7   7   7   6   6   6   6   5   5   4   4   3   2   1   8   8   8   4   3   3   2   2   2   2  
10  10   9   9   8   6   4   6   4   3   5   5   5   3   3   2   2   2   7   7   3   3   3   1   6   6   5   5   5   5   4   2   0   0   0   0   7   7   7   6   6   6   6   5   5   4   4   3   2   1   8   8   8   4   3   3   2   2   2   2  
 5   5   6   6   7   9  11   7   9  10   6   6   6   8   8   9   9   9   2   2   6   6   6   8   1   1   2   2   2   2   3   5   7   7   7   7   0   0   0   1   1   1   1   2   2   3   3   4   5   6   1   1   1   5   6   6   7   7   7   7  
 5   5   6   6   7   9  11   7   9  10   6   6   6   8   8   9   9   9   2   2   6   6   6   8   1   1   2   2   2   2   3   5   7   7   7   7   0   0   0   1   1   1   1   2   2   3   3   4   5   6   1   1   1   5   6   6   7   7   7   7  
 5   5   6   6   7   9  11   7   9  10   6   6   6   8   8   9   9   9   2   2   6   6   6   8   1   1   2   2   2   2   3   5   7   7   7   7   0   0   0   1   1   1   1   2   2   3   3   4   5   6   1   1   1   5   6   6   7   7   7   7  
 6   6   5   5   6   8  10   6   8   9   5   5   5   7   7   8   8   8   3   3   5   5   5   7   2   2   1   1   1   1   2   4   6   6   6   6   1   1   1   0   0   0   0   1   1   2   2   3   4   5   2   2   2   4   5   5   6   6   6   6  
 6   6   5   5   6   8  10   6   8   9   5   5   5   7   7   8   8   8   3   3   5   5   5   7   2   2   1   1   1   1   2   4   6   6   6   6   1   1   1   0   0   0   0   1   1   2   2   3   4   5   2   2   2   4   5   5   6   6   6   6  
 6   6   5   5   6   8  10   6   8   9   5   5   5   7   7   8   8   8   3   3   5   5   5   7   2   2   1   1   1   1   2   4   6   6   6   6   1   1   1   0   0   0   0   1   1   2   2   3   4   5   2   2   2   4   5   5   6   6   6   6  
 6   6   5   5   6   8  10   6   8   9   5   5   5   7   7   8   8   8   3   3   5   5   5   7   2   2   1   1   1   1   2   4   6   6   6   6   1   1   1   0   0   0   0   1   1   2   2   3   4   5   2   2   2   4   5   5   6   6   6   6  
 7   7   6   6   5   7   9   5   7   8   4   4   4   6   6   7   7   7   4   4   4   4   4   6   3   3   2   2   2   2   1   3   5   5   5   5   2   2   2   1   1   1   1   0   0   1   1   2   3   4   3   3   3   3   4   4   5   5   5   5  
 7   7   6   6   5   7   9   5   7   8   4   4   4   6   6   7   7   7   4   4   4   4   4   6   3   3   2   2   2   2   1   3   5   5   5   5   2   2   2   1   1   1   1   0   0   1   1   2   3   4   3   3   3   3   4   4   5   5   5   5  
 8   8   7   7   6   6   8   4   6   7   3   3   3   5   5   6   6   6   5   5   3   3   3   5   4   4   3   3   3   3   2   2   4   4   4   4   3   3   3   2   2   2   2   1   1   0   0   1   2   3   4   4   4   2   3   3   4   4   4   4  
 8   8   7   7   6   6   8   4   6   7   3   3   3   5   5   6   6   6   5   5   3   3   3   5   4   4   3   3   3   3   2   2   4   4   4   4   3   3   3   2   2   2   2   1   1   0   0   1   2   3   4   4   4   2   3   3   4   4   4   4  
 9   9   8   8   7   5   7   5   5   6   4   4   4   4   4   5   5   5   6   6   2   2   2   4   5   5   4   4   4   4   3   1   3   3   3   3   4   4   4   3   3   3   3   2   2   1   1   0   1   2   5   5   5   1   2   2   3   3   3   3  
10  10   9   9   8   6   6   6   4   5   5   5   5   3   3   4   4   4   7   7   3   3   3   3   6   6   5   5   5   5   4   2   2   2   2   2   5   5   5   4   4   4   4   3   3   2   2   1   0   1   6   6   6   2   1   1   2   2   2   2  
11  11  10  10   9   7   5   7   5   4   6   6   6   4   4   3   3   3   8   8   4   4   4   2   7   7   6   6   6   6   5   3   1   1   1   1   6   6   6   5   5   5   5   4   4   3   3   2   1   0   7   7   7   3   2   2   1   1   1   1  
 6   6   7   7   8  10  12   8  10  11   7   7   7   9   9  10  10  10   3   3   7   7   7   9   2   2   3   3   3   3   4   6   8   8   8   8   1   1   1   2   2   2   2   3   3   4   4   5   6   7   0   0   0   4   5   5   6   6   6   6  
 6   6   7   7   8  10  12   8  10  11   7   7   7   9   9  10  10  10   3   3   7   7   7   9   2   2   3   3   3   3   4   6   8   8   8   8   1   1   1   2   2   2   2   3   3   4   4   5   6   7   0   0   0   4   5   5   6   6   6   6  
 6   6   7   7   8  10  12   8  10  11   7   7   7   9   9  10  10  10   3   3   7   7   7   9   2   2   3   3   3   3   4   6   8   8   8   8   1   1   1   2   2   2   2   3   3   4   4   5   6   7   0   0   0   4   5   5   6   6   6   6  
10  10   9   9   8   6   8   6   6   7   5   5   5   5   5   6   6   6   7   7   3   3   3   5   6   6   5   5   5   5   4   2   4   4   4   4   5   5   5   4   4   4   4   3   3   2   2   1   2   3   4   4   4   0   1   1   2   2   2   2  
11  11  10  10   9   7   7   7   5   6   6   6   6   4   4   5   5   5   8   8   4   4   4   4   7   7   6   6   6   6   5   3   3   3   3   3   6   6   6   5   5   5   5   4   4   3   3   2   1   2   5   5   5   1   0   0   1   1   1   1  
11  11  10  10   9   7   7   7   5   6   6   6   6   4   4   5   5   5   8   8   4   4   4   4   7   7   6   6   6   6   5   3   3   3   3   3   6   6   6   5   5   5   5   4   4   3   3   2   1   2   5   5   5   1   0   0   1   1   1   1  
12  12  11  11  10   8   6   8   6   5   7   7   7   5   5   4   4   4   9   9   5   5   5   3   8   8   7   7   7   7   6   4   2   2   2   2   7   7   7   6   6   6   6   5   5   4   4   3   2   1   6   6   6   2   1   1   0   0   0   0  
12  12  11  11  10   8   6   8   6   5   7   7   7   5   5   4   4   4   9   9   5   5   5   3   8   8   7   7   7   7   6   4   2   2   2   2   7   7   7   6   6   6   6   5   5   4   4   3   2   1   6   6   6   2   1   1   0   0   0   0  
12  12  11  11  10   8   6   8   6   5   7   7   7   5   5   4   4   4   9   9   5   5   5   3   8   8   7   7   7   7   6   4   2   2   2   2   7   7   7   6   6   6   6   5   5   4   4   3   2   1   6   6   6   2   1   1   0   0   0   0  
12  12  11  11  10   8   6   8   6   5   7   7   7   5   5   4   4   4   9   9   5   5   5   3   8   8   7   7   7   7   6   4   2   2   2   2   7   7   7   6   6   6   6   5   5   4   4   3   2   1   6   6   6   2   1   1   0   0   0   0  

 0  21  21  21  21  20  21  21  25  18  25  21  24  21  19  21  22  17  21  21  16  19  21  20  25  21  21  22  21  22  17  25  22  21  21  20  21  21  24  21  20  25  24  26  19  21  17  21  23  21  23  23  17  21  21  21  21  21  17  17  
 0   0  27  21  28  21  27  27  21  14  15  21  21  28  42  19  21  21  21  21  21  31  15  21  15  21  30  21  30  26  21  15  15  27  37  21   8  21  21  12  21  31  12  15  21  31  21  21  27  21  15  21  37  27  30  20  12  12  21  21  
 0   0   0  17  14  21  21  23  21  40  31   5  23  22  30   6  29  19   9  40  25  16  21  21  33   5  31  31  21  14  11  21  21  21  16  19  34  27  21  21  23  32  21  19  19  22  13  21  21  15  21  11  18  25  23  20  21  23  21  25  
 0   0   0   0  21  17  25  21  25  31  31  21  21  21  23  17  15  21  11  33  37  27  21  17  31  17  25  35  21  27  11  30  34  21  21  29   7  15  25  23  30  31  14  21  21  21  11  21  29  27  17  13  11  15  10  21  23  10  21  13  
 0   0   0   0   0  21  21  21  21  34  21  27  21  21  21  28  21  21  21  27  21  21  21  14  27  21  21  28  21  21  14  21  21  21  14  21  28  21  21  21  15  14  28  28  14  22  21  27  21  15  21  28  14  21  15  28  21  27  14  21  
 0   0   0   0   0   0  17  21  10  20  21  40  22  21  21  21  22  21  21  29  22  21  21  39  21  21  25  18  21  22  21  10  28  21  21  28  20  21  18  21  16  14  22  15  21  21  21  13  29  28  25  21  33  21  25  21  21  25  21  21  
 0   0   0   0   0   0   0  15  18  21  22  25  21  15  15  15  21  22  20  22  21  27  27  25  22  21  24  23  27  15  21  23  27  15  21  21  27  21  17  21  17  21  21  22  21  21  21  21  15  21  25  21  31  15  25  21  20  25  27  20  
 0   0   0   0   0   0   0   0  21  19  21  21  19  15  15  21  19  23  23  21  21  27  27  21  19  21  21  21  27  15  21  27  27  15  19  23  27  21  21  21  25  21  21  23  23  21  19  21  15  21  21  21  23  23  19  21  21  19  21  23  
 0   0   0   0   0   0   0   0   0  21  16  32  17  21  21  21  21  24  22  20  25  21  21  32  16  21  26  17  21  21  25   6  21  21  21  21  28  21  17  21  17  10  21   9  21  21  25  21  21  28  25  21  29  21  25  21  22  25  25  26  
 0   0   0   0   0   0   0   0   0   0  11  25  18  21  19  31  20  23  33   5  10  19  21  20   3  31  11  12  21  22  31  21  22  21  26  22  14  21  24  21  24  11  24  24  21  27  29  15  23  27  23  33  30  23  25  21  21  13  21  23  
 0   0   0   0   0   0   0   0   0   0   0  29  19  23  27  37  21  22  34   8  13  27  19  21   0  31  12  11  29  23  37  17  21  23  21  21  23  21  21  21  27   5  21   8  21  21  35  21  21  21  15  31  25  27  21  21  22  19  25  26  
 0   0   0   0   0   0   0   0   0   0   0   0  23  33  21   5  27  19  12  23  23  15  29   9  35   5  27  35  24   7  13  33  12  23  22  13  30  27  25  21  32  36  22  26  21  27  11  15  13  14  16  11  23  27  23  21  21   9  22  27  
 0   0   0   0   0   0   0   0   0   0   0   0   0  19  29  21  18  29  21  23  24  29  23  22   5  21  21  20  19  28  23   7  24  19  19  24  29  21  22  21  20  19  22  20  21  21  13  21  23  21  23  23  27  23  19  21  11  21  25  27  
 0   0   0   0   0   0   0   0   0   0   0   0   0   0  15  20  21  23  19  29  23  26  19  21  11  21  21  30  19  24  19  27  27  13  21  21  25  21  21  21  27  13  21  23  21  20  21  21  15  21  21  21  21  21  21  22  21  23  21  21  
 0   0   0   0   0   0   0   0   0   0   0   0   0   0   0  24  21  21  21  10  19   9  27  21  37  21  14  21  12   5  21  37  29  15  21  21  17  21  23  28  21  12  34  27  19  12  31  21  17  21  29  21  12  15  14  21  38  32  21  23  
 0   0   0   0   0   0   0   0   0   0   0   0   0   0   0   0  27  21  11  31  25   8  21  28  37   5  40  30  24  16  18  21  21  21  21  21  27  27  21  12   9  46   5  20  28  22  11  21  21  15  27   4  42  15  30  15  12  12  34  27  
 0   0   0   0   0   0   0   0   0   0   0   0   0   0   0   0   0  23  23  21  26  35  21  22  19  27  21  20  29  26  21  21  22  21  19  24  15  15  20  21  20  21  20  22  23  21  19  21  21  27  21  21  17  17  19  21  21  19  21  17  
 0   0   0   0   0   0   0   0   0   0   0   0   0   0   0   0   0   0  22  18  15  21  19  21  26  21  22  21  23  23  19  25  21  23  23  19  23  21  21  21  23  23  21  20  19  21  19  21  21  21  21  21  15  19  23  21  22  21  17  16  
 0   0   0   0   0   0   0   0   0   0   0   0   0   0   0   0   0   0   0  34  33  21  23  20  34  11  30  31  20  19   9  22  20  19  24  19  19  21  21  21  24  33  22  22  19  21  13  21  21  21  20  11  19  19  23  21  20  25  22  18  
 0   0   0   0   0   0   0   0   0   0   0   0   0   0   0   0   0   0   0   0   9  21  19  13   4  31  14  11  29  23  33  21  21  23  21  21  23  21  21  19  27   9  23  18  21  27  31  23  21  27  21  29  13  21  29  21  20  15  21  24  
 0   0   0   0   0   0   0   0   0   0   0   0   0   0   0   0   0   0   0   0   0  13  19  22  15  25  11  10  23  16  29  25  24  23  21  22  29  27  22  21  22  13  22  22  19  21  27  21  23  15  23  33  23  27  21  21  21  19  17  23  
 0   0   0   0   0   0   0   0   0   0   0   0   0   0   0   0   0   0   0   0   0   0  15  21  37  15  21  21   1  12  21  25  17  27  12  21  11  27  23  21   9  20  23  27  19  20  31  21  29  15  29  23  27  21  21  22  31  21  21  27  
 0   0   0   0   0   0   0   0   0   0   0   0   0   0   0   0   0   0   0   0   0   0   0  21  11  21  21  21  17  39  23  15  15  29  21  21  17  21  21  21  15  19  21  19  21  21  21  21  27  21  21  21  21  21  21  21  21  19  21  21  
 0   0   0   0   0   0   0   0   0   0   0   0   0   0   0   0   0   0   0   0   0   0   0   0  21  21  17  33  22  22  14  33  19  21  22  20  14  21  26  21  25  21  30  36  14  28  21  29  21  14  16  28   9  21  17  28  21  17  15  21  
 0   0   0   0   0   0   0   0   0   0   0   0   0   0   0   0   0   0   0   0   0   0   0   0   0  31  12  11  27  41  35   7  21  21  19  23  31  21  21  21  31   7  21  12  23  27  23  15  21  27  15  31  27  29  25  21  12  13  25  28  
 0   0   0   0   0   0   0   0   0   0   0   0   0   0   0   0   0   0   0   0   0   0   0   0   0   0  31  31  21  15  11  21  21  21  21  21  27  27  21  21  21  31  21  21  21  21  11  21  21  15  21  11  27  27  21  21  21  21  21  27  
 0   0   0   0   0   0   0   0   0   0   0   0   0   0   0   0   0   0   0   0   0   0   0   0   0   0   0  15  12  21  31  25  21  21  21  21  21  21  25  32  25   2  28  22  21  12  31  21  21  21  17  33   8  21   6  21  31  24  21  18  
 0   0   0   0   0   0   0   0   0   0   0   0   0   0   0   0   0   0   0   0   0   0   0   0   0   0   0   0  21  20  38  17  22  21  21  22  21  21  16  21  24  27  13  13  28  14  31  21  21  21  25  24  19  27  25  14  21  25  22  21  
 0   0   0   0   0   0   0   0   0   0   0   0   0   0   0   0   0   0   0   0   0   0   0   0   0   0   0   0   0  25  19  14  16  25  20  21  13  21  21  30   8  14  29  29  21  12  21  21  27  21  28  21  12  15  12  21  30  32  20  21  
 0   0   0   0   0   0   0   0   0   0   0   0   0   0   0   0   0   0   0   0   0   0   0   0   0   0   0   0   0   0  19  37  28  13  21  22  21  27  20  21  28  24  20  22  21  22  31  21  15  15  21  21  27  27  21  20  31  23  21  27  
 0   0   0   0   0   0   0   0   0   0   0   0   0   0   0   0   0   0   0   0   0   0   0   0   0   0   0   0   0   0   0  25  21  19  21  21  19  21  21  21  21  30  28  34  14  28   7  21  21  21  21  18  17  21  21  28  21  23  10  17  
 0   0   0   0   0   0   0   0   0   0   0   0   0   0   0   0   0   0   0   0   0   0   0   0   0   0   0   0   0   0   0   0  11  27  20  21  32  21  17  21   5  10  25  10  21  21  15  21  27  28  26  21  29  21  30  21  11  30  24  25  
 0   0   0   0   0   0   0   0   0   0   0   0   0   0   0   0   0   0   0   0   0   0   0   0   0   0   0   0   0   0   0   0   0  27  22  12  23  21  20  21  10  21  26  22  23  21  21  21  17  21  18  19  21  21  26  21  21  26  22  21  
 0   0   0   0   0   0   0   0   0   0   0   0   0   0   0   0   0   0   0   0   0   0   0   0   0   0   0   0   0   0   0   0   0   0  21  21  25  21  21  21  27  23  21  23  21  21  21  21  15  21  21  21  21  21  21  21  21  23  21  21  
 0   0   0   0   0   0   0   0   0   0   0   0   0   0   0   0   0   0   0   0   0   0   0   0   0   0   0   0   0   0   0   0   0   0   0  23  28  21  21  21  18  21  20  23  23  21  19  21  21  21  22  21  16  23  19  21  21  19  20  23  
 0   0   0   0   0   0   0   0   0   0   0   0   0   0   0   0   0   0   0   0   0   0   0   0   0   0   0   0   0   0   0   0   0   0   0   0  29  21  22  21  22  21  22  20  19  21  23  21  13  21  21  21  19  19  23  21  21  23  21  19  
 0   0   0   0   0   0   0   0   0   0   0   0   0   0   0   0   0   0   0   0   0   0   0   0   0   0   0   0   0   0   0   0   0   0   0   0   0  15  21  21  15  30  21  30  21  21  31  21  35  20  21  21  22  15  21  21  31  23  21  15  
 0   0   0   0   0   0   0   0   0   0   0   0   0   0   0   0   0   0   0   0   0   0   0   0   0   0   0   0   0   0   0   0   0   0   0   0   0   0  21  21  21  21  21  21  21  21  21  21  21  27  21  21  15  15  21  21  21  21  21  15  
 0   0   0   0   0   0   0   0   0   0   0   0   0   0   0   0   0   0   0   0   0   0   0   0   0   0   0   0   0   0   0   0   0   0   0   0   0   0   0  21  18  21  18  20  23  21  21  21  19  21  23  19  25  21  25  21  21  25  21  21  
 0   0   0   0   0   0   0   0   0   0   0   0   0   0   0   0   0   0   0   0   0   0   0   0   0   0   0   0   0   0   0   0   0   0   0   0   0   0   0   0  21  30  14  21  21  30  21  21  21  21  21  19  30  21  32  21  10  14  21  23  
 0   0   0   0   0   0   0   0   0   0   0   0   0   0   0   0   0   0   0   0   0   0   0   0   0   0   0   0   0   0   0   0   0   0   0   0   0   0   0   0   0  21  26  30  23  15  19  27  27  15  32  21  33  11  22  21  21  34  26  23  
 0   0   0   0   0   0   0   0   0   0   0   0   0   0   0   0   0   0   0   0   0   0   0   0   0   0   0   0   0   0   0   0   0   0   0   0   0   0   0   0   0   0  37  15  14  18  35  21  21  28  21  38  16  21  12  29  30  28  18  25  
 0   0   0   0   0   0   0   0   0   0   0   0   0   0   0   0   0   0   0   0   0   0   0   0   0   0   0   0   0   0   0   0   0   0   0   0   0   0   0   0   0   0   0  13  30  23  21  21  19  21  20  14  30  21  23  14  14   5  27  19  
 0   0   0   0   0   0   0   0   0   0   0   0   0   0   0   0   0   0   0   0   0   0   0   0   0   0   0   0   0   0   0   0   0   0   0   0   0   0   0   0   0   0   0   0  26  14  27  21  21  28  15  14  23  25  23  14  22  21  32  24  
 0   0   0   0   0   0   0   0   0   0   0   0   0   0   0   0   0   0   0   0   0   0   0   0   0   0   0   0   0   0   0   0   0   0   0   0   0   0   0   0   0   0   0   0   0  28  23  21  23  21  23  30  19  19  23  28  21  23  14  19  
 0   0   0   0   0   0   0   0   0   0   0   0   0   0   0   0   0   0   0   0   0   0   0   0   0   0   0   0   0   0   0   0   0   0   0   0   0   0   0   0   0   0   0   0   0   0  21  27  21  15  21  14  12  21   6  15  30  36  28  21  
 0   0   0   0   0   0   0   0   0   0   0   0   0   0   0   0   0   0   0   0   0   0   0   0   0   0   0   0   0   0   0   0   0   0   0   0   0   0   0   0   0   0   0   0   0   0   0  21  21  21  21  11  19  23  19  21  11  19  17  19  
 0   0   0   0   0   0   0   0   0   0   0   0   0   0   0   0   0   0   0   0   0   0   0   0   0   0   0   0   0   0   0   0   0   0   0   0   0   0   0   0   0   0   0   0   0   0   0   0  21  27  21  21  29  21  27  21  21  15  21  21  
 0   0   0   0   0   0   0   0   0   0   0   0   0   0   0   0   0   0   0   0   0   0   0   0   0   0   0   0   0   0   0   0   0   0   0   0   0   0   0   0   0   0   0   0   0   0   0   0   0  21  19  19  21  21  21  21  21  21  21  21  
 0   0   0   0   0   0   0   0   0   0   0   0   0   0   0   0   0   0   0   0   0   0   0   0   0   0   0   0   0   0   0   0   0   0   0   0   0   0   0   0   0   0   0   0   0   0   0   0   0   0  21  21  27  27  15  21  21  27  21  27  
 0   0   0   0   0   0   0   0   0   0   0   0   0   0   0   0   0   0   0   0   0   0   0   0   0   0   0   0   0   0   0   0   0   0   0   0   0   0   0   0   0   0   0   0   0   0   0   0   0   0   0  19  17  27  17  21  21  17  22  21  
 0   0   0   0   0   0   0   0   0   0   0   0   0   0   0   0   0   0   0   0   0   0   0   0   0   0   0   0   0   0   0   0   0   0   0   0   0   0   0   0   0   0   0   0   0   0   0   0   0   0   0   0  21  21  23  14  19  23  28  23  
 0   0   0   0   0   0   0   0   0   0   0   0   0   0   0   0   0   0   0   0   0   0   0   0   0   0   0   0   0   0   0   0   0   0   0   0   0   0   0   0   0   0   0   0   0   0   0   0   0   0   0   0   0  19  10  21  30  28  11   9  
 0   0   0   0   0   0   0   0   0   0   0   0   0   0   0   0   0   0   0   0   0   0   0   0   0   0   0   0   0   0   0   0   0   0   0   0   0   0   0   0   0   0   0   0   0   0   0   0   0   0   0   0   0   0  23  21  21  23  27  13  
 0   0   0   0   0   0   0   0   0   0   0   0   0   0   0   0   0   0   0   0   0   0   0   0   0   0   0   0   0   0   0   0   0   0   0   0   0   0   0   0   0   0   0   0   0   0   0   0   0   0   0   0   0   0   0  21  32  23  21  21  
 0   0   0   0   0   0   0   0   0   0   0   0   0   0   0   0   0   0   0   0   0   0   0   0   0   0   0   0   0   0   0   0   0   0   0   0   0   0   0   0   0   0   0   0   0   0   0   0   0   0   0   0   0   0   0   0  21  21  28  21  
 0   0   0   0   0   0   0   0   0   0   0   0   0   0   0   0   0   0   0   0   0   0   0   0   0   0   0   0   0   0   0   0   0   0   0   0   0   0   0   0   0   0   0   0   0   0   0   0   0   0   0   0   0   0   0   0   0  14  21  22  
 0   0   0   0   0   0   0   0   0   0   0   0   0   0   0   0   0   0   0   0   0   0   0   0   0   0   0   0   0   0   0   0   0   0   0   0   0   0   0   0   0   0   0   0   0   0   0   0   0   0   0   0   0   0   0   0   0   0  21  21  
 0   0   0   0   0   0   0   0   0   0   0   0   0   0   0   0   0   0   0   0   0   0   0   0   0   0   0   0   0   0   0   0   0   0   0   0   0   0   0   0   0   0   0   0   0   0   0   0   0   0   0   0   0   0   0   0   0   0   0  17  
 0   0   0   0   0   0   0   0   0   0   0   0   0   0   0   0   0   0   0   0   0   0   0   0   0   0   0   0   0   0   0   0   0   0   0   0   0   0   0   0   0   0   0   0   0   0   0   0   0   0   0   0   0   0   0   0   0   0   0   0  
